
  12    4
  10   10   10   10

   0   0   0   0   0   4 2 3 5 11 
   9  10  10  10  10   5 10 9 8 7 6 
  10  10  10  10  10   2 8 4 
   1  10  10  10  10   2 7 6 
   7  10  10  10  10   2 7 6 
   8  10  10  10  10   1 12
   2  10  10  10  10   1 12
   5  10  10  10  10   1 12
   8  10  10  10  10   1 12
   9  10  10  10  10   1 12
   8  10  10  10  10   1 12
   0   0   0   0   0   0 
